min: c;

c = 3.68375776122237 * u4_t1_h1 + 3.92320684637861 * u4_t1_h2 + 3.07072971455386 * u4_t1_h3 + 3.40595819883718 * u4_t1_h4 + 3.40595819883718 * u4_t10_h4 + 3.37506203708276 * u4_t1_h5 + 3.37506203708276 * u4_t10_h5 + 4.12545733376753 * u4_t1_h6 + 4.12545733376753 * u4_t10_h6 + 3.59536372648399 * u4_t1_h7 + 3.59536372648399 * u4_t10_h7 + 5.13690163626308 * u4_t1_h8 + 5.13690163626308 * u4_t9_h8 + 5.13690163626308 * u4_t10_h8 + 4.58661517473723 * u4_t9_h9 + 4.58661517473723 * u4_t10_h9 + 5.26733445077691 * u4_t9_h10 + 5.26733445077691 * u4_t10_h10 + 3.84707398866641 * u4_t2_h11 + 3.84707398866641 * u4_t4_h11 + 3.84707398866641 * u4_t9_h11 + 3.84707398866641 * u4_t10_h11 + 5.85928754393797 * u4_t2_h12 + 5.85928754393797 * u4_t3_h12 + 5.85928754393797 * u4_t4_h12 + 5.85928754393797 * u4_t8_h12 + 5.85928754393797 * u4_t9_h12 + 5.85928754393797 * u4_t10_h12 + 4.89568129894184 * u4_t2_h13 + 4.89568129894184 * u4_t3_h13 + 4.89568129894184 * u4_t4_h13 + 4.89568129894184 * u4_t8_h13 + 4.89568129894184 * u4_t9_h13 + 5.76543726354101 * u4_t2_h14 + 5.76543726354101 * u4_t3_h14 + 5.76543726354101 * u4_t4_h14 + 5.76543726354101 * u4_t8_h14 + 5.76543726354101 * u4_t9_h14 + 6.48367519103213 * u4_t2_h15 + 6.48367519103213 * u4_t3_h15 + 6.48367519103213 * u4_t4_h15 + 6.48367519103213 * u4_t8_h15 + 6.48367519103213 * u4_t9_h15 + 5.56485888588049 * u4_t2_h16 + 5.56485888588049 * u4_t3_h16 + 5.56485888588049 * u4_t4_h16 + 5.56485888588049 * u4_t5_h16 + 5.56485888588049 * u4_t8_h16 + 5.56485888588049 * u4_t9_h16 + 6.58058733293443 * u4_t2_h17 + 6.58058733293443 * u4_t3_h17 + 6.58058733293443 * u4_t5_h17 + 6.58058733293443 * u4_t8_h17 + 6.58058733293443 * u4_t9_h17 + 6.28484346865736 * u4_t2_h18 + 6.28484346865736 * u4_t3_h18 + 6.28484346865736 * u4_t5_h18 + 6.28484346865736 * u4_t8_h18 + 6.28484346865736 * u4_t9_h18 + 5.34122791467953 * u4_t2_h19 + 5.34122791467953 * u4_t3_h19 + 5.34122791467953 * u4_t6_h19 + 5.34122791467953 * u4_t8_h19 + 5.34122791467953 * u4_t9_h19 + 5.93804295345015 * u4_t2_h20 + 5.93804295345015 * u4_t6_h20 + 5.93804295345015 * u4_t9_h20 + 5.03538266892905 * u4_t6_h21 + 5.40466648400341 * u4_t6_h22 + 5.40466648400341 * u4_t7_h22 + 5.0075062515716 * u4_t6_h23 + 5.0075062515716 * u4_t7_h23;
0 <= u4_t1_h1 <= 1;
0 <= u4_t1_h2 <= 1;
0 <= u4_t1_h3 <= 1;
0 <= u4_t1_h4 <= 1;
0 <= u4_t1_h5 <= 1;
0 <= u4_t1_h6 <= 1;
0 <= u4_t1_h7 <= 1;
0 <= u4_t1_h8 <= 1;
u4_t1_h1 + u4_t1_h2 + u4_t1_h3 + u4_t1_h4 + u4_t1_h5 + u4_t1_h6 + u4_t1_h7 + u4_t1_h8 = 1;
0 <= u4_t2_h11 <= 1;
0 <= u4_t2_h12 <= 1;
0 <= u4_t2_h13 <= 1;
0 <= u4_t2_h14 <= 1;
0 <= u4_t2_h15 <= 1;
0 <= u4_t2_h16 <= 1;
0 <= u4_t2_h17 <= 1;
0 <= u4_t2_h18 <= 1;
0 <= u4_t2_h19 <= 1;
0 <= u4_t2_h20 <= 1;
u4_t2_h11 + u4_t2_h12 + u4_t2_h13 + u4_t2_h14 + u4_t2_h15 + u4_t2_h16 + u4_t2_h17 + u4_t2_h18 + u4_t2_h19 + u4_t2_h20 = 2;
0 <= u4_t3_h12 <= 1;
0 <= u4_t3_h13 <= 1;
0 <= u4_t3_h14 <= 1;
0 <= u4_t3_h15 <= 1;
0 <= u4_t3_h16 <= 1;
0 <= u4_t3_h17 <= 1;
0 <= u4_t3_h18 <= 1;
0 <= u4_t3_h19 <= 1;
u4_t3_h12 + u4_t3_h13 + u4_t3_h14 + u4_t3_h15 + u4_t3_h16 + u4_t3_h17 + u4_t3_h18 + u4_t3_h19 = 3;
0 <= u4_t4_h11 <= 1;
0 <= u4_t4_h12 <= 1;
0 <= u4_t4_h13 <= 1;
0 <= u4_t4_h14 <= 1;
0 <= u4_t4_h15 <= 1;
0 <= u4_t4_h16 <= 1;
u4_t4_h11 + u4_t4_h12 + u4_t4_h13 + u4_t4_h14 + u4_t4_h15 + u4_t4_h16 = 3;
0 <= u4_t5_h16 <= 1;
0 <= u4_t5_h17 <= 1;
0 <= u4_t5_h18 <= 1;
u4_t5_h16 + u4_t5_h17 + u4_t5_h18 = 1;
0 <= u4_t6_h19 <= 1;
0 <= u4_t6_h20 <= 1;
0 <= u4_t6_h21 <= 1;
0 <= u4_t6_h22 <= 1;
0 <= u4_t6_h23 <= 1;
u4_t6_h19 + u4_t6_h20 + u4_t6_h21 + u4_t6_h22 + u4_t6_h23 = 3;
0 <= u4_t7_h22 <= 1;
0 <= u4_t7_h23 <= 1;
u4_t7_h22 + u4_t7_h23 = 1;
0 <= u4_t8_h12 <= 1;
0 <= u4_t8_h13 <= 1;
0 <= u4_t8_h14 <= 1;
0 <= u4_t8_h15 <= 1;
0 <= u4_t8_h16 <= 1;
0 <= u4_t8_h17 <= 1;
0 <= u4_t8_h18 <= 1;
0 <= u4_t8_h19 <= 1;
u4_t8_h12 + u4_t8_h13 + u4_t8_h14 + u4_t8_h15 + u4_t8_h16 + u4_t8_h17 + u4_t8_h18 + u4_t8_h19 = 2;
0 <= u4_t9_h8 <= 1;
0 <= u4_t9_h9 <= 1;
0 <= u4_t9_h10 <= 1;
0 <= u4_t9_h11 <= 1;
0 <= u4_t9_h12 <= 1;
0 <= u4_t9_h13 <= 1;
0 <= u4_t9_h14 <= 1;
0 <= u4_t9_h15 <= 1;
0 <= u4_t9_h16 <= 1;
0 <= u4_t9_h17 <= 1;
0 <= u4_t9_h18 <= 1;
0 <= u4_t9_h19 <= 1;
0 <= u4_t9_h20 <= 1;
u4_t9_h8 + u4_t9_h9 + u4_t9_h10 + u4_t9_h11 + u4_t9_h12 + u4_t9_h13 + u4_t9_h14 + u4_t9_h15 + u4_t9_h16 + u4_t9_h17 + u4_t9_h18 + u4_t9_h19 + u4_t9_h20 = 2;
0 <= u4_t10_h4 <= 1;
0 <= u4_t10_h5 <= 1;
0 <= u4_t10_h6 <= 1;
0 <= u4_t10_h7 <= 1;
0 <= u4_t10_h8 <= 1;
0 <= u4_t10_h9 <= 1;
0 <= u4_t10_h10 <= 1;
0 <= u4_t10_h11 <= 1;
0 <= u4_t10_h12 <= 1;
u4_t10_h4 + u4_t10_h5 + u4_t10_h6 + u4_t10_h7 + u4_t10_h8 + u4_t10_h9 + u4_t10_h10 + u4_t10_h11 + u4_t10_h12 = 2;
